c FILE:  brock200_2.b
c
c Graph Generator
c
c By: Mark Brockington (brock@cs.ualberta.ca)
c and Joe Culberson (joe@cs.ualberta.ca)
c
c Graph Size:200, Clique Size: 12
c Seed:20, Edge Density:  0.50000
c Depth 1 Hiding
c
c THERE IS AN ERROR IN THIS GRAPH!!
c Clique Elements are:
c 26 120 119 157 69 182 47 148 104 134 
c 54 144 
c
c Estimated Size of Uncompressed File:   0.1MB
c
p edge 200 9876
e 3 1
e 3 2
e 4 2
e 5 1
e 5 4
e 6 3
e 6 4
e 6 5
e 7 1
e 7 2
e 7 5
e 8 1
e 8 3
e 8 6
e 8 7
e 9 1
e 9 3
e 10 1
e 10 4
e 10 6
e 10 7
e 10 8
e 11 1
e 11 2
e 11 5
e 11 6
e 11 7
e 11 8
e 12 7
e 12 9
e 13 2
e 13 3
e 13 5
e 13 7
e 13 8
e 13 9
e 13 12
e 14 1
e 14 2
e 14 4
e 14 6
e 14 8
e 14 9
e 14 10
e 14 13
e 15 1
e 15 4
e 15 6
e 15 9
e 15 11
e 15 14
e 16 3
e 16 4
e 16 5
e 16 7
e 16 9
e 16 12
e 16 13
e 16 15
e 17 2
e 17 5
e 17 6
e 17 8
e 17 12
e 17 15
e 17 16
e 18 6
e 18 7
e 18 11
e 18 13
e 18 14
e 18 15
e 19 3
e 19 4
e 19 5
e 19 7
e 19 12
e 19 14
e 20 3
e 20 7
e 20 8
e 20 14
e 20 15
e 20 17
e 20 18
e 21 1
e 21 2
e 21 4
e 21 6
e 21 8
e 21 9
e 21 11
e 21 13
e 21 15
e 21 18
e 21 20
e 22 1
e 22 2
e 22 3
e 22 5
e 22 6
e 22 8
e 22 9
e 22 10
e 22 13
e 22 15
e 22 16
e 22 17
e 22 20
e 23 2
e 23 8
e 23 9
e 23 11
e 23 15
e 23 16
e 23 19
e 23 22
e 24 1
e 24 4
e 24 6
e 24 7
e 24 10
e 24 11
e 24 15
e 24 16
e 24 19
e 24 22
e 25 3
e 25 5
e 25 6
e 25 7
e 25 11
e 25 14
e 25 16
e 25 21
e 25 23
e 25 24
e 26 1
e 26 4
e 26 5
e 26 6
e 26 9
e 26 12
e 26 13
e 26 15
e 26 18
e 26 19
e 26 20
e 26 23
e 26 25
e 27 2
e 27 3
e 27 5
e 27 6
e 27 8
e 27 9
e 27 15
e 27 17
e 27 19
e 27 22
e 27 25
e 28 1
e 28 2
e 28 3
e 28 6
e 28 8
e 28 9
e 28 11
e 28 12
e 28 15
e 28 16
e 28 17
e 28 18
e 28 21
e 28 22
e 28 24
e 28 25
e 28 26
e 28 27
e 29 1
e 29 2
e 29 3
e 29 5
e 29 7
e 29 9
e 29 12
e 29 13
e 29 15
e 29 16
e 29 18
e 29 19
e 29 20
e 29 22
e 29 27
e 29 28
e 30 1
e 30 2
e 30 4
e 30 5
e 30 7
e 30 8
e 30 9
e 30 12
e 30 14
e 30 16
e 30 18
e 30 22
e 30 24
e 30 28
e 31 7
e 31 8
e 31 10
e 31 11
e 31 13
e 31 15
e 31 16
e 31 17
e 31 18
e 31 19
e 31 23
e 31 24
e 31 25
e 31 26
e 31 28
e 32 3
e 32 4
e 32 9
e 32 10
e 32 11
e 32 12
e 32 15
e 32 16
e 32 17
e 32 19
e 32 21
e 32 22
e 32 23
e 32 27
e 32 28
e 32 29
e 32 31
e 33 1
e 33 2
e 33 4
e 33 5
e 33 6
e 33 7
e 33 14
e 33 15
e 33 18
e 33 20
e 33 22
e 33 23
e 33 24
e 33 32
e 34 3
e 34 6
e 34 7
e 34 9
e 34 14
e 34 15
e 34 16
e 34 18
e 34 19
e 34 20
e 34 26
e 34 27
e 34 28
e 34 29
e 34 32
e 34 33
e 35 2
e 35 8
e 35 9
e 35 10
e 35 11
e 35 16
e 35 20
e 35 21
e 35 24
e 35 26
e 35 27
e 35 29
e 35 32
e 35 34
e 36 2
e 36 3
e 36 5
e 36 8
e 36 10
e 36 11
e 36 12
e 36 16
e 36 19
e 36 23
e 36 27
e 36 28
e 36 29
e 36 30
e 36 32
e 36 34
e 37 4
e 37 5
e 37 6
e 37 8
e 37 9
e 37 10
e 37 12
e 37 13
e 37 15
e 37 17
e 37 18
e 37 19
e 37 21
e 37 23
e 37 27
e 37 28
e 37 32
e 37 33
e 38 1
e 38 6
e 38 7
e 38 8
e 38 10
e 38 13
e 38 15
e 38 18
e 38 19
e 38 23
e 38 24
e 38 25
e 38 28
e 38 29
e 38 30
e 38 32
e 38 33
e 38 34
e 38 35
e 38 37
e 39 1
e 39 4
e 39 5
e 39 6
e 39 10
e 39 11
e 39 12
e 39 17
e 39 18
e 39 21
e 39 23
e 39 26
e 39 27
e 39 28
e 39 29
e 39 32
e 39 33
e 39 34
e 39 35
e 39 38
e 40 1
e 40 3
e 40 4
e 40 5
e 40 6
e 40 7
e 40 8
e 40 10
e 40 11
e 40 12
e 40 13
e 40 16
e 40 18
e 40 20
e 40 21
e 40 23
e 40 25
e 40 29
e 40 30
e 40 31
e 40 32
e 40 33
e 40 35
e 40 36
e 40 37
e 40 39
